min: c;

c = 4.0276269287655 * u3_t10_h0 + 4.12327021752765 * u3_t10_h1 + 3.25573167551602 * u3_t4_h2 + 3.25573167551602 * u3_t10_h2 + 3.51395806103774 * u3_t4_h3 + 3.51395806103774 * u3_t10_h3 + 3.03392469186098 * u3_t4_h4 + 3.03392469186098 * u3_t10_h4 + 3.19674820939541 * u3_t4_h5 + 3.19674820939541 * u3_t10_h5 + 3.97542679483455 * u3_t4_h6 + 3.97542679483455 * u3_t10_h6 + 4.35938653630312 * u3_t4_h7 + 4.35938653630312 * u3_t9_h7 + 4.35938653630312 * u3_t10_h7 + 5.20601321649838 * u3_t4_h8 + 5.20601321649838 * u3_t9_h8 + 5.28058372163128 * u3_t4_h9 + 5.28058372163128 * u3_t9_h9 + 4.96259716179997 * u3_t4_h10 + 4.96259716179997 * u3_t6_h10 + 4.96259716179997 * u3_t9_h10 + 3.82816011509472 * u3_t3_h11 + 3.82816011509472 * u3_t4_h11 + 3.82816011509472 * u3_t6_h11 + 3.82816011509472 * u3_t9_h11 + 6.5408599396854 * u3_t3_h12 + 6.5408599396854 * u3_t4_h12 + 6.5408599396854 * u3_t6_h12 + 6.5408599396854 * u3_t9_h12 + 4.47166205555246 * u3_t3_h13 + 4.47166205555246 * u3_t4_h13 + 4.47166205555246 * u3_t5_h13 + 4.47166205555246 * u3_t6_h13 + 4.47166205555246 * u3_t9_h13 + 5.63649931068174 * u3_t3_h14 + 5.63649931068174 * u3_t4_h14 + 5.63649931068174 * u3_t5_h14 + 5.63649931068174 * u3_t6_h14 + 5.63649931068174 * u3_t9_h14 + 6.29614045363895 * u3_t2_h15 + 6.29614045363895 * u3_t3_h15 + 6.29614045363895 * u3_t4_h15 + 6.29614045363895 * u3_t5_h15 + 6.29614045363895 * u3_t6_h15 + 6.29614045363895 * u3_t9_h15 + 5.94538528672497 * u3_t2_h16 + 5.94538528672497 * u3_t4_h16 + 5.94538528672497 * u3_t5_h16 + 5.94538528672497 * u3_t6_h16 + 5.94538528672497 * u3_t9_h16 + 6.70500136686307 * u3_t2_h17 + 6.70500136686307 * u3_t4_h17 + 6.70500136686307 * u3_t6_h17 + 6.70500136686307 * u3_t9_h17 + 6.45111785894243 * u3_t2_h18 + 6.45111785894243 * u3_t6_h18 + 6.45111785894243 * u3_t9_h18 + 5.24202638166664 * u3_t2_h19 + 5.24202638166664 * u3_t9_h19 + 5.37695093844066 * u3_t1_h20 + 5.37695093844066 * u3_t2_h20 + 5.37695093844066 * u3_t8_h20 + 5.37695093844066 * u3_t9_h20 + 5.64901231197403 * u3_t1_h21 + 5.64901231197403 * u3_t2_h21 + 5.64901231197403 * u3_t7_h21 + 5.64901231197403 * u3_t8_h21 + 5.64901231197403 * u3_t9_h21 + 5.86401299003475 * u3_t1_h22 + 5.86401299003475 * u3_t7_h22 + 5.86401299003475 * u3_t8_h22 + 5.24207910092557 * u3_t1_h23 + 5.24207910092557 * u3_t7_h23 + 5.24207910092557 * u3_t8_h23;
0 <= u3_t1_h20 <= 1;
0 <= u3_t1_h21 <= 1;
0 <= u3_t1_h22 <= 1;
0 <= u3_t1_h23 <= 1;
u3_t1_h20 + u3_t1_h21 + u3_t1_h22 + u3_t1_h23 = 2;
0 <= u3_t2_h15 <= 1;
0 <= u3_t2_h16 <= 1;
0 <= u3_t2_h17 <= 1;
0 <= u3_t2_h18 <= 1;
0 <= u3_t2_h19 <= 1;
0 <= u3_t2_h20 <= 1;
0 <= u3_t2_h21 <= 1;
u3_t2_h15 + u3_t2_h16 + u3_t2_h17 + u3_t2_h18 + u3_t2_h19 + u3_t2_h20 + u3_t2_h21 = 3;
0 <= u3_t3_h11 <= 1;
0 <= u3_t3_h12 <= 1;
0 <= u3_t3_h13 <= 1;
0 <= u3_t3_h14 <= 1;
0 <= u3_t3_h15 <= 1;
u3_t3_h11 + u3_t3_h12 + u3_t3_h13 + u3_t3_h14 + u3_t3_h15 = 2;
0 <= u3_t4_h2 <= 1;
0 <= u3_t4_h3 <= 1;
0 <= u3_t4_h4 <= 1;
0 <= u3_t4_h5 <= 1;
0 <= u3_t4_h6 <= 1;
0 <= u3_t4_h7 <= 1;
0 <= u3_t4_h8 <= 1;
0 <= u3_t4_h9 <= 1;
0 <= u3_t4_h10 <= 1;
0 <= u3_t4_h11 <= 1;
0 <= u3_t4_h12 <= 1;
0 <= u3_t4_h13 <= 1;
0 <= u3_t4_h14 <= 1;
0 <= u3_t4_h15 <= 1;
0 <= u3_t4_h16 <= 1;
0 <= u3_t4_h17 <= 1;
u3_t4_h2 + u3_t4_h3 + u3_t4_h4 + u3_t4_h5 + u3_t4_h6 + u3_t4_h7 + u3_t4_h8 + u3_t4_h9 + u3_t4_h10 + u3_t4_h11 + u3_t4_h12 + u3_t4_h13 + u3_t4_h14 + u3_t4_h15 + u3_t4_h16 + u3_t4_h17 = 3;
0 <= u3_t5_h13 <= 1;
0 <= u3_t5_h14 <= 1;
0 <= u3_t5_h15 <= 1;
0 <= u3_t5_h16 <= 1;
u3_t5_h13 + u3_t5_h14 + u3_t5_h15 + u3_t5_h16 = 2;
0 <= u3_t6_h10 <= 1;
0 <= u3_t6_h11 <= 1;
0 <= u3_t6_h12 <= 1;
0 <= u3_t6_h13 <= 1;
0 <= u3_t6_h14 <= 1;
0 <= u3_t6_h15 <= 1;
0 <= u3_t6_h16 <= 1;
0 <= u3_t6_h17 <= 1;
0 <= u3_t6_h18 <= 1;
u3_t6_h10 + u3_t6_h11 + u3_t6_h12 + u3_t6_h13 + u3_t6_h14 + u3_t6_h15 + u3_t6_h16 + u3_t6_h17 + u3_t6_h18 = 2;
0 <= u3_t7_h21 <= 1;
0 <= u3_t7_h22 <= 1;
0 <= u3_t7_h23 <= 1;
u3_t7_h21 + u3_t7_h22 + u3_t7_h23 = 2;
0 <= u3_t8_h20 <= 1;
0 <= u3_t8_h21 <= 1;
0 <= u3_t8_h22 <= 1;
0 <= u3_t8_h23 <= 1;
u3_t8_h20 + u3_t8_h21 + u3_t8_h22 + u3_t8_h23 = 1;
0 <= u3_t9_h7 <= 1;
0 <= u3_t9_h8 <= 1;
0 <= u3_t9_h9 <= 1;
0 <= u3_t9_h10 <= 1;
0 <= u3_t9_h11 <= 1;
0 <= u3_t9_h12 <= 1;
0 <= u3_t9_h13 <= 1;
0 <= u3_t9_h14 <= 1;
0 <= u3_t9_h15 <= 1;
0 <= u3_t9_h16 <= 1;
0 <= u3_t9_h17 <= 1;
0 <= u3_t9_h18 <= 1;
0 <= u3_t9_h19 <= 1;
0 <= u3_t9_h20 <= 1;
0 <= u3_t9_h21 <= 1;
u3_t9_h7 + u3_t9_h8 + u3_t9_h9 + u3_t9_h10 + u3_t9_h11 + u3_t9_h12 + u3_t9_h13 + u3_t9_h14 + u3_t9_h15 + u3_t9_h16 + u3_t9_h17 + u3_t9_h18 + u3_t9_h19 + u3_t9_h20 + u3_t9_h21 = 2;
0 <= u3_t10_h0 <= 1;
0 <= u3_t10_h1 <= 1;
0 <= u3_t10_h2 <= 1;
0 <= u3_t10_h3 <= 1;
0 <= u3_t10_h4 <= 1;
0 <= u3_t10_h5 <= 1;
0 <= u3_t10_h6 <= 1;
0 <= u3_t10_h7 <= 1;
u3_t10_h0 + u3_t10_h1 + u3_t10_h2 + u3_t10_h3 + u3_t10_h4 + u3_t10_h5 + u3_t10_h6 + u3_t10_h7 = 3;
